nbNodes = 12;
nbVehi = 3;
nbServi = 4;

e = 
 [ 0,  388,  436,  104,  220,   70,  328,  398,  446,  177,  359,    0,];

l = 
 [480, 480, 520, 166, 320, 151, 407, 504, 519, 244, 459, 480,];

a = 
 [|  1,  1,  1,  1,
 |  1,  1,  0,  1,
 |  1,  1,  1,  1,
 |];

p = array3d(1..nbNodes,1..nbVehi,1..nbServi,
[  0,  0,  0,  0,	  0,  0,  0,  0,	  0,  0,  0,  0,	
 14, 12, 16, 10,	 13, 19, 14, 20,	 15, 17, 15, 16,	
 21, 10, 22, 13,	 15, 13, 13, 15,	 19, 15, 15, 22,	
 17, 12, 15, 13,	 20, 13, 15, 17,	 14, 19, 11, 21,	
 16, 18, 19, 23,	 17, 18, 21, 12,	 16, 17, 15, 21,	
 10, 14, 16, 17,	 15, 13, 11, 11,	 19, 17, 18, 18,	
 12, 16, 13, 16,	 13, 18, 15, 16,	 11, 18, 13, 12,	
 12, 16, 12, 10,	 21, 17, 18, 14,	 21, 12, 21, 18,	
 20, 11, 19, 17,	 10, 20, 13, 12,	 14, 20, 18, 21,	
 19, 13, 10, 20,	 20, 15, 12, 16,	 13, 22, 17, 12,	
 20, 20, 10, 18,	 12, 20, 16, 15,	 17, 22, 13, 16,	
  0,  0,  0,  0,	  0,  0,  0,  0,	  0,  0,  0,  0,	
]);

rs = 
[|  true,  true,  true,  true,	 	
|  false,  false,  true,  false,	  	
|  true,  false,  false,  false,	  	
|  false,  false,  false,  true,	  	
|  false,  false,  false,  true,	  	
|  true,  false,  false,  false,	  	
|  true,  false,  false,  false,	  	
|  false,  false,  false,  true,	  	
|  false,  true,  false,  false,	  	
|  false,  true,  false,  false,	  	
|  false,  false,  true,  false,	  	
|  true,  true,  true,  true,	  	
|];

d=[|0, 24, 0, 0, 10, 3, 13, 25, 3, 11, 2, 0, 
|24, 0, 24, 24, 34, 21, 36, 33, 27, 31, 23, 24, 
|0, 24, 0, 0, 10, 3, 13, 25, 3, 11, 2, 0, 
|0, 24, 0, 0, 10, 3, 13, 25, 3, 11, 2, 0, 
|10, 34, 10, 10, 0, 13, 7, 26, 7, 12, 11, 10, 
|3, 21, 3, 3, 13, 0, 15, 26, 6, 12, 4, 3, 
|13, 36, 13, 13, 7, 15, 0, 34, 10, 6, 15, 13, 
|25, 33, 25, 25, 26, 26, 34, 0, 26, 36, 23, 25, 
|3, 27, 3, 3, 7, 6, 10, 26, 0, 9, 5, 3, 
|11, 31, 11, 11, 12, 12, 6, 36, 9, 0, 13, 11, 
|2, 23, 2, 2, 11, 4, 15, 23, 5, 13, 0, 2, 
|0, 24, 0, 0, 10, 3, 13, 25, 3, 11, 2, 0, 
|];
